NAME : LPS-n23-m273
COMMENT : (Lartu-Peter-Santi Plot, instance 8273 out of 39200. 23 customers.)
TYPE : CVRP
DIMENSION : 23
EDGE_WEIGHT_TYPE : EUC_2D
CAPACITY : 89
NODE_COORD_SECTION
 1 90 21
 2 3 94
 3 91 64
 4 30 87
 5 75 78
 6 50 54
 7 21 55
 8 45 55
 9 25 77
 10 24 1
 11 77 44
 12 23 87
 13 2 42
 14 59 28
 15 35 35
 16 55 37
 17 78 72
 18 27 2
 19 39 83
 20 58 5
 21 54 41
 22 61 30
 23 100 0
DEMAND_SECTION
1 0
2 49
3 35
4 76
5 38
6 9
7 14
8 19
9 60
10 63
11 48
12 16
13 39
14 16
15 25
16 6
17 53
18 80
19 9
20 73
21 69
22 69
23 89
DEPOT_SECTION
 1
 -1
EOF
